%mem=100GB
%nprocshared=48
%chk=C6H6_6+dp.chk
# opt hf/6-31+g(d,p) geom=connectivity

Title Card Required

0 1
 C                 -3.06451603    0.57603686    0.00000000
 C                 -1.66935603    0.57603686    0.00000000
 C                 -0.97181803    1.78378786    0.00000000
 C                 -1.66947203    2.99229686   -0.00119900
 C                 -3.06429703    2.99221886   -0.00167800
 C                 -3.76189803    1.78401286   -0.00068200
 H                 -3.61427503   -0.37628014    0.00045000
 H                 -1.11984803   -0.37647614    0.00131500
 H                  0.12786197    1.78386786    0.00063400
 H                 -1.11927203    3.94443986   -0.00125800
 H                 -3.61441903    3.94449986   -0.00263100
 H                 -4.86150203    1.78419586   -0.00086200

 1 2 1.5 6 1.5 7 1.0
 2 3 1.5 8 1.0
 3 4 1.5 9 1.0
 4 5 1.5 10 1.0
 5 6 1.5 11 1.0
 6 12 1.0
 7
 8
 9
 10
 11
 12

