%nprocshared=8
%mem=16GB
%chk=CH4_6.chk
# opt hf/6-31g geom=connectivity

Title Card Required

0 1
 C                 -1.03686633   -0.39170506    0.00000000
 H                 -0.68021190   -1.40051507    0.00000000
 H                 -0.68019349    0.11269313    0.87365150
 H                 -0.68019349    0.11269313   -0.87365150
 H                 -2.10686633   -0.39169188    0.00000000

 1 2 1.0 3 1.0 4 1.0 5 1.0
 2
 3
 4
 5

