%nprocshared=8
%mem=16GB
%chk=h2.chk
# opt hf/3-21g geom=connectivity output=wfn

Title Card Required

0 1
 H                  0.00000000    0.00000000    0.30000000
 H                 -0.00000000    0.00000000   -0.30000000

 1 2 1.0
 2

h2.wfn


