%mem=32GB
%nprocshared=12
%chk=Z:\home\ricardo\Escritorio\Corr\QTAIM\naft_6.chk
# opt hf/6-31g geom=connectivity

Title Card Required

0 1
 H                 -0.60018312   -0.23268601   -0.90852500
 C                 -3.14985412   -4.24566101   -0.00016900
 C                 -1.75815912   -4.24566101   -0.00016900
 C                 -1.03779712   -3.04175001   -0.00016900
 C                 -1.73769012   -1.85035401   -0.00014800
 C                 -3.16669412   -1.84945501   -0.00021200
 C                 -3.86956312   -3.04270101   -0.00023200
 H                 -3.69665012   -5.20018101   -0.00006800
 H                 -1.21117012   -5.20006001   -0.00019600
 H                  0.06100488   -3.05379401   -0.00006300
 H                 -4.96855012   -3.05025301   -0.00036500
 C                 -1.22119812   -0.43778801    0.00000000
 H                 -0.60023512   -0.23287901    0.90860000
 C                 -2.47722712    0.38957999    0.00004000
 C                 -2.62427212    1.76349899    0.00011400
 C                 -3.91985212    2.30180899   -0.00000900
 C                 -5.03797312    1.47318299    0.00021800
 C                 -4.89998612    0.07816599    0.00003300
 C                 -3.62478512   -0.46198301   -0.00007700
 H                 -1.74864812    2.42741599    0.00019000
 H                 -4.04865312    3.39427899   -0.00018400
 H                 -6.04561312    1.91449099    0.00041200
 H                 -5.78747012   -0.57006601    0.00001500

 1 12 1.0
 2 3 1.5 7 1.5 8 1.0
 3 4 1.5 9 1.0
 4 5 2.0 10 1.0
 5 6 1.5 12 1.0
 6 7 2.0 19 1.0
 7 11 1.0
 8
 9
 10
 11
 12 13 1.0 14 1.0
 13
 14 15 2.0 19 1.5
 15 16 1.5 20 1.0
 16 17 1.5 21 1.0
 17 18 1.5 22 1.0
 18 19 2.0 23 1.0
 19
 20
 21
 22
 23

